Solving original (integer) problem with strategy gdp.hull_exact...
--- Job model.gms Start 02/14/26 22:16:28 52.2.0 d8e408be LEX-LEG x86 64bit/Linux
--- Applying:
    /package/gams/52.2/gmsprmun.txt
--- GAMS Parameters defined
    Input /local/scratch/a/sgusev/repos/k_means/data/gams_gurobi_gdp.hull_exact/no_mode/2026-02-14_22-16-28/original/model.gms
    Output /local/scratch/a/sgusev/repos/k_means/data/gams_gurobi_gdp.hull_exact/no_mode/2026-02-14_22-16-28/original/output.lst
    ScrDir /local/scratch/a/sgusev/repos/k_means/data/gams_gurobi_gdp.hull_exact/no_mode/2026-02-14_22-16-28/original/225a/
    SysDir /package/gams/52.2/
    CurDir /local/scratch/a/sgusev/repos/k_means/data/gams_gurobi_gdp.hull_exact/no_mode/2026-02-14_22-16-28/original/
    LogOption 3
    AppendLog 1
Licensee: David Bernal / SECQUOIA Research Group         G251008+0003Ac-GEN
          Purdue University, Davidson School of Chemical EngineeringDCE4838
          225a/gamslice.dat
          5a82958a-fbca-4a23
          node:66820903 mem:995 cores:48 ipport:35275 v:2                  
          Evaluation license: Not for commercial or production use
          The time-limited license stops working on : Jun 30, 2027
System information: 48 physical cores and 995 Gb physical memory detected
GAMS 52.2.0   Copyright (C) 1987-2025 GAMS Development. All rights reserved
--- Starting compilation
--- model.gms(3084) 2 Mb
--- $echo File /local/scratch/a/sgusev/repos/k_means/data/gams_gurobi_gdp.hull_exact/no_mode/2026-02-14_22-16-28/original/gurobi.opt
--- model.gms(4561) 2 Mb
--- Starting execution: elapsed 0:00:00.018
--- model.gms(3093) 3 Mb
--- Generating MINLP model GAMS_MODEL
--- model.gms(3097) 6 Mb
---   935 rows  476 columns  2,289 non-zeroes
---   1,575 nl-code  300 nl-non-zeroes
---   75 discrete-columns
--- Range statistics (absolute non-zero finite values)
--- RHS       [min, max] : [ 1.000E+00, 1.000E+00] - Zero values observed as well
--- Bound     [min, max] : [ 1.000E+00, 6.000E+01] - Zero values observed as well
--- Matrix    [min, max] : [ 1.000E+00, 6.000E+01] - Zero values observed as well
--- model.gms(3097) 4 Mb
--- Executing GUROBI (Solvelink=5): elapsed 0:00:00.023
Reading parameter(s) from "/local/scratch/a/sgusev/repos/k_means/data/gams_gurobi_gdp.hull_exact/no_mode/2026-02-14_22-16-28/original/gurobi.opt"
>>  NonConvex 2
>>  Threads 1
>>  MIPGap 1e-06
>>  MIPGapAbs 1e-10
>>  FeasibilityTol 1e-06
>>  OptimalityTol 1e-06
>>  IntFeasTol 1e-05
Finished reading from "/local/scratch/a/sgusev/repos/k_means/data/gams_gurobi_gdp.hull_exact/no_mode/2026-02-14_22-16-28/original/gurobi.opt"

... GRB_LICENSE_FILE = /local/scratch/a/sgusev/gurobi.lic

    Gurobi           52.2.0 d8e408be Dec 8, 2025           LEG x86 64bit/Linux    

... GAMS/Gurobi Link license.
... GMO Q Extraction (ThreePass): 0.00s

    Gurobi Optimizer version 13.0.0 build v13.0.0rc1 (linux64 - "Oracle Linux Server 9.7")
    
    CPU model: AMD EPYC 7643 48-Core Processor, instruction set [SSE2|AVX|AVX2]
    Thread count: 48 physical cores, 96 logical processors, using up to 1 threads
    
    Non-default parameters:
    TimeLimit  300
    MIPGap  1e-06
    LogToConsole  0
    NonConvex  2
    Threads  1
    
    Optimize a model with 859 rows, 475 columns and 1973 nonzeros (Min)
    Model fingerprint: 0xb98db4ac
    Model has 15 linear objective coefficients
    Model has 75 quadratic constraints
    Variable types: 400 continuous, 75 integer (0 binary)
    Coefficient statistics:
      Matrix range     [1e+00, 6e+01]
      QMatrix range    [4e-02, 2e+00]
      Objective range  [1e+00, 1e+00]
      Bounds range     [1e+00, 6e+01]
      RHS range        [1e+00, 1e+00]
    Presolve removed 150 rows and 165 columns
    Presolve time: 0.01s
    Presolved: 1144 rows, 685 columns, 3068 nonzeros
    Presolved model has 150 quadratic constraint(s)
    Variable types: 610 continuous, 75 integer (75 binary)
    
    Root relaxation: objective 0.000000e+00, 246 iterations, 0.00 seconds (0.00 work units)
    
        Nodes    |    Current Node    |     Objective Bounds      |     Work
     Expl Unexpl |  Obj  Depth IntInf | Incumbent    BestBd   Gap | It/Node Time
    
    H    0     0                       3.2738510    0.00000   100%     -    0s
    *    0     0               0       3.2738510    0.00000   100%     -    0s
         0     0    0.00000    0   16    3.27385    0.00000   100%     -    0s
         0     0    0.00000    0   12    3.27385    0.00000   100%     -    0s
         0     0    0.00000    0   19    3.27385    0.00000   100%     -    0s
         0     0    0.00000    0   25    3.27385    0.00000   100%     -    0s
         0     0    0.00000    0   14    3.27385    0.00000   100%     -    0s
         0     0    0.00000    0   16    3.27385    0.00000   100%     -    0s
         0     0    0.00000    0   16    3.27385    0.00000   100%     -    0s
         0     0    0.00000    0   16    3.27385    0.00000   100%     -    0s
    H    0     0                       3.1377974    0.00000   100%     -    0s
         0     0    0.00000    0   28    3.13780    0.00000   100%     -    0s
         0     0    0.00000    0   26    3.13780    0.00000   100%     -    0s
         0     0    0.00000    0   14    3.13780    0.00000   100%     -    0s
         0     0    0.00000    0   18    3.13780    0.00000   100%     -    0s
         0     0    0.00000    0   18    3.13780    0.00000   100%     -    0s
         0     0    0.00000    0   22    3.13780    0.00000   100%     -    0s
         0     0    0.00000    0   20    3.13780    0.00000   100%     -    0s
         0     0    0.00000    0   24    3.13780    0.00000   100%     -    0s
         0     0    0.00000    0   14    3.13780    0.00000   100%     -    0s
         0     0    0.00000    0   23    3.13780    0.00000   100%     -    0s
         0     0    0.00000    0   14    3.13780    0.00000   100%     -    0s
         0     0    0.00000    0   20    3.13780    0.00000   100%     -    0s
         0     0    0.00000    0   20    3.13780    0.00000   100%     -    0s
         0     0    0.00000    0   24    3.13780    0.00000   100%     -    0s
         0     0    0.00000    0   18    3.13780    0.00000   100%     -    0s
         0     0    0.00000    0   22    3.13780    0.00000   100%     -    0s
         0     0    0.00000    0   22    3.13780    0.00000   100%     -    0s
         0     0    0.00000    0   20    3.13780    0.00000   100%     -    0s
         0     0    0.00000    0   20    3.13780    0.00000   100%     -    0s
         0     0    0.00000    0   20    3.13780    0.00000   100%     -    0s
         0     0    0.00000    0   16    3.13780    0.00000   100%     -    0s
         0     0    0.00000    0   20    3.13780    0.00000   100%     -    0s
         0     0    0.00000    0   20    3.13780    0.00000   100%     -    0s
         0     0    0.00000    0   24    3.13780    0.00000   100%     -    0s
         0     0    0.00000    0   16    3.13780    0.00000   100%     -    0s
         0     0    0.00000    0   22    3.13780    0.00000   100%     -    0s
         0     0    0.00000    0   20    3.13780    0.00000   100%     -    0s
         0     0    0.00000    0   24    3.13780    0.00000   100%     -    0s
         0     0    0.00000    0   24    3.13780    0.00000   100%     -    0s
         0     0    0.00000    0   24    3.13780    0.00000   100%     -    0s
         0     0    0.00000    0   20    3.13780    0.00000   100%     -    0s
         0     0    0.00000    0   20    3.13780    0.00000   100%     -    0s
         0     0    0.00000    0   16    3.13780    0.00000   100%     -    0s
         0     0    0.00000    0   22    3.13780    0.00000   100%     -    0s
         0     0    0.00000    0   22    3.13780    0.00000   100%     -    0s
         0     0    0.00000    0   24    3.13780    0.00000   100%     -    0s
         0     0    0.00000    0   22    3.13780    0.00000   100%     -    0s
         0     0    0.00000    0   22    3.13780    0.00000   100%     -    0s
         0     0    0.00000    0   22    3.13780    0.00000   100%     -    0s
         0     0    0.00000    0   21    3.13780    0.00000   100%     -    0s
         0     0    0.00000    0   18    3.13780    0.00000   100%     -    0s
         0     0    0.00000    0   20    3.13780    0.00000   100%     -    0s
         0     0    0.00000    0   16    3.13780    0.00000   100%     -    0s
         0     0    0.00000    0   22    3.13780    0.00000   100%     -    0s
         0     0    0.00000    0   20    3.13780    0.00000   100%     -    0s
         0     0    0.00000    0   22    3.13780    0.00000   100%     -    0s
         0     0    0.00000    0   16    3.13780    0.00000   100%     -    0s
         0     0    0.00000    0   23    3.13780    0.00000   100%     -    0s
         0     0    0.00000    0   14    3.13780    0.00000   100%     -    0s
         0     0    0.00000    0   18    3.13780    0.00000   100%     -    0s
         0     0    0.00000    0   18    3.13780    0.00000   100%     -    0s
         0     0    0.00000    0   20    3.13780    0.00000   100%     -    0s
         0     0    0.00000    0   20    3.13780    0.00000   100%     -    0s
         0     0    0.00000    0   16    3.13780    0.00000   100%     -    0s
         0     0    0.00000    0   12    3.13780    0.00000   100%     -    0s
         0     0    0.00000    0   18    3.13780    0.00000   100%     -    0s
         0     0    0.00000    0   17    3.13780    0.00000   100%     -    0s
         0     0    0.00000    0   20    3.13780    0.00000   100%     -    0s
         0     0    0.00000    0   20    3.13780    0.00000   100%     -    0s
         0     0    0.00000    0   22    3.13780    0.00000   100%     -    0s
         0     0    0.00000    0    8    3.13780    0.00000   100%     -    0s
         0     0    0.00000    0   22    3.13780    0.00000   100%     -    0s
         0     0    0.00000    0   14    3.13780    0.00000   100%     -    0s
         0     0    0.00000    0   18    3.13780    0.00000   100%     -    0s
         0     0    0.00000    0   14    3.13780    0.00000   100%     -    0s
         0     0    0.00000    0   16    3.13780    0.00000   100%     -    0s
         0     0    0.00000    0   16    3.13780    0.00000   100%     -    0s
         0     0    0.00000    0   17    3.13780    0.00000   100%     -    0s
         0     0    0.00000    0   17    3.13780    0.00000   100%     -    0s
         0     0    0.00000    0   18    3.13780    0.00000   100%     -    0s
         0     0    0.00000    0   10    3.13780    0.00000   100%     -    0s
         0     0    0.00000    0   14    3.13780    0.00000   100%     -    0s
         0     0    0.00000    0   14    3.13780    0.00000   100%     -    0s
         0     0    0.00000    0   16    3.13780    0.00000   100%     -    0s
         0     0    0.00000    0   14    3.13780    0.00000   100%     -    0s
         0     0    0.00000    0   14    3.13780    0.00000   100%     -    0s
         0     0    0.00000    0   14    3.13780    0.00000   100%     -    0s
         0     0    0.00000    0   22    3.13780    0.00000   100%     -    0s
         0     0    0.00000    0   16    3.13780    0.00000   100%     -    0s
         0     0    0.00000    0   18    3.13780    0.00000   100%     -    0s
         0     0    0.00000    0   18    3.13780    0.00000   100%     -    0s
         0     0    0.00000    0   20    3.13780    0.00000   100%     -    0s
         0     0    0.00000    0   20    3.13780    0.00000   100%     -    0s
         0     0    0.00000    0   24    3.13780    0.00000   100%     -    0s
         0     0    0.00000    0   16    3.13780    0.00000   100%     -    0s
         0     0    0.00000    0   16    3.13780    0.00000   100%     -    0s
         0     0    0.00000    0   16    3.13780    0.00000   100%     -    0s
         0     0    0.00000    0   20    3.13780    0.00000   100%     -    0s
         0     0    0.00000    0   20    3.13780    0.00000   100%     -    0s
         0     0    0.00000    0   20    3.13780    0.00000   100%     -    0s
         0     0    0.00000    0   18    3.13780    0.00000   100%     -    0s
         0     0    0.00000    0   20    3.13780    0.00000   100%     -    0s
         0     0    0.00000    0   18    3.13780    0.00000   100%     -    0s
         0     0    0.00000    0   20    3.13780    0.00000   100%     -    0s
         0     0    0.00000    0   18    3.13780    0.00000   100%     -    0s
         0     0    0.00000    0   28    3.13780    0.00000   100%     -    0s
         0     0    0.00000    0   24    3.13780    0.00000   100%     -    0s
         0     0    0.00000    0   18    3.13780    0.00000   100%     -    0s
         0     0    0.00000    0   16    3.13780    0.00000   100%     -    0s
         0     0    0.00000    0   22    3.13780    0.00000   100%     -    0s
         0     0    0.00000    0   20    3.13780    0.00000   100%     -    0s
         0     0    0.00000    0   21    3.13780    0.00000   100%     -    0s
         0     0    0.00000    0   21    3.13780    0.00000   100%     -    0s
         0     0    0.00000    0   24    3.13780    0.00000   100%     -    0s
         0     0    0.00000    0   22    3.13780    0.00000   100%     -    0s
         0     0    0.00000    0   20    3.13780    0.00000   100%     -    0s
         0     0    0.00000    0   20    3.13780    0.00000   100%     -    0s
         0     0    0.00000    0   20    3.13780    0.00000   100%     -    0s
         0     0    0.00000    0   19    3.13780    0.00000   100%     -    0s
         0     0    0.00000    0   20    3.13780    0.00000   100%     -    0s
         0     0    0.00000    0   20    3.13780    0.00000   100%     -    0s
         0     0    0.00000    0   21    3.13780    0.00000   100%     -    0s
         0     0    0.00000    0   18    3.13780    0.00000   100%     -    0s
         0     0    0.00000    0   22    3.13780    0.00000   100%     -    0s
         0     0    0.00000    0   22    3.13780    0.00000   100%     -    0s
         0     0    0.00000    0   26    3.13780    0.00000   100%     -    0s
         0     0    0.00000    0   16    3.13780    0.00000   100%     -    0s
         0     0    0.00000    0   22    3.13780    0.00000   100%     -    0s
         0     0    0.00000    0   12    3.13780    0.00000   100%     -    0s
         0     0    0.00000    0   22    3.13780    0.00000   100%     -    0s
         0     0    0.00000    0   12    3.13780    0.00000   100%     -    0s
         0     0    0.00000    0   18    3.13780    0.00000   100%     -    0s
         0     0    0.00000    0   18    3.13780    0.00000   100%     -    0s
         0     0    0.00000    0   26    3.13780    0.00000   100%     -    0s
         0     0    0.00000    0   20    3.13780    0.00000   100%     -    0s
         0     0    0.00000    0   18    3.13780    0.00000   100%     -    0s
         0     0    0.00000    0   16    3.13780    0.00000   100%     -    0s
         0     0    0.00000    0   22    3.13780    0.00000   100%     -    0s
         0     0    0.00000    0   22    3.13780    0.00000   100%     -    0s
         0     0    0.00000    0   24    3.13780    0.00000   100%     -    0s
         0     0    0.00000    0   24    3.13780    0.00000   100%     -    0s
         0     0    0.00000    0   24    3.13780    0.00000   100%     -    0s
         0     0    0.00000    0   18    3.13780    0.00000   100%     -    0s
         0     0    0.00000    0   22    3.13780    0.00000   100%     -    0s
         0     0    0.00000    0    8    3.13780    0.00000   100%     -    0s
         0     0    0.00000    0   18    3.13780    0.00000   100%     -    0s
         0     0    0.00000    0   18    3.13780    0.00000   100%     -    0s
         0     0    0.00000    0   22    3.13780    0.00000   100%     -    0s
         0     0    0.00000    0   22    3.13780    0.00000   100%     -    0s
         0     0    0.00000    0   20    3.13780    0.00000   100%     -    0s
         0     0    0.00000    0   16    3.13780    0.00000   100%     -    0s
         0     0    0.00000    0   18    3.13780    0.00000   100%     -    0s
         0     0    0.00000    0   18    3.13780    0.00000   100%     -    0s
         0     0    0.00000    0   22    3.13780    0.00000   100%     -    0s
         0     0    0.00000    0   16    3.13780    0.00000   100%     -    0s
         0     0    0.00000    0   24    3.13780    0.00000   100%     -    0s
         0     0    0.00000    0   24    3.13780    0.00000   100%     -    0s
         0     0    0.00000    0   22    3.13780    0.00000   100%     -    0s
         0     0    0.00000    0   10    3.13780    0.00000   100%     -    0s
         0     0    0.00000    0   16    3.13780    0.00000   100%     -    0s
         0     0    0.00000    0   16    3.13780    0.00000   100%     -    0s
         0     0    0.00000    0   24    3.13780    0.00000   100%     -    0s
         0     0    0.00000    0   14    3.13780    0.00000   100%     -    0s
         0     0    0.00000    0   22    3.13780    0.00000   100%     -    0s
         0     0    0.00000    0   22    3.13780    0.00000   100%     -    0s
         0     0    0.00000    0   24    3.13780    0.00000   100%     -    0s
         0     0    0.00000    0   18    3.13780    0.00000   100%     -    0s
         0     0    0.00000    0   24    3.13780    0.00000   100%     -    0s
         0     0    0.00000    0   20    3.13780    0.00000   100%     -    0s
         0     0    0.00000    0   18    3.13780    0.00000   100%     -    0s
         0     0    0.00000    0   18    3.13780    0.00000   100%     -    0s
         0     0    0.00000    0   18    3.13780    0.00000   100%     -    0s
         0     0    0.00000    0   18    3.13780    0.00000   100%     -    0s
         0     0    0.00000    0   20    3.13780    0.00000   100%     -    0s
         0     0    0.00000    0   16    3.13780    0.00000   100%     -    0s
         0     0    0.00000    0   20    3.13780    0.00000   100%     -    0s
         0     0    0.00000    0   20    3.13780    0.00000   100%     -    0s
         0     0    0.00000    0   20    3.13780    0.00000   100%     -    0s
         0     0    0.00000    0   14    3.13780    0.00000   100%     -    0s
         0     0    0.00000    0   16    3.13780    0.00000   100%     -    0s
         0     0    0.00000    0   16    3.13780    0.00000   100%     -    0s
         0     0    0.00000    0   16    3.13780    0.00000   100%     -    0s
         0     0    0.00000    0   16    3.13780    0.00000   100%     -    0s
         0     0    0.00000    0   16    3.13780    0.00000   100%     -    0s
         0     0    0.00000    0   16    3.13780    0.00000   100%     -    0s
         0     0    0.00000    0   20    3.13780    0.00000   100%     -    0s
         0     0    0.00000    0   18    3.13780    0.00000   100%     -    0s
         0     0    0.00000    0   21    3.13780    0.00000   100%     -    0s
         0     0    0.00000    0   20    3.13780    0.00000   100%     -    0s
         0     0    0.00000    0   14    3.13780    0.00000   100%     -    0s
         0     0    0.00000    0   14    3.13780    0.00000   100%     -    0s
         0     0    0.00000    0   22    3.13780    0.00000   100%     -    1s
         0     0    0.00000    0   20    3.13780    0.00000   100%     -    1s
         0     0    0.00000    0   21    3.13780    0.00000   100%     -    1s
         0     0    0.00000    0   20    3.13780    0.00000   100%     -    1s
         0     0    0.00000    0   19    3.13780    0.00000   100%     -    1s
         0     0    0.00000    0   19    3.13780    0.00000   100%     -    1s
         0     0    0.00000    0   20    3.13780    0.00000   100%     -    1s
         0     0    0.00000    0   14    3.13780    0.00000   100%     -    1s
         0     0    0.00000    0   20    3.13780    0.00000   100%     -    1s
         0     0    0.00000    0   16    3.13780    0.00000   100%     -    1s
         0     0    0.00000    0   20    3.13780    0.00000   100%     -    1s
         0     0    0.00000    0   16    3.13780    0.00000   100%     -    1s
         0     0    0.00000    0   20    3.13780    0.00000   100%     -    1s
         0     0    0.00000    0   20    3.13780    0.00000   100%     -    1s
         0     2    0.00000    0   18    3.13780    0.00000   100%     -    1s
    H    7     7                       3.1347551    0.00000   100%  78.9    1s
    H   13    13                       3.1347550    0.00000   100%  92.2    1s
    H   19    19                       2.8904247    0.00000   100%  96.3    1s
    H   47    47                       2.4291025    0.00000   100%  82.1    1s
    H   47    47                       2.4291025    0.00000   100%  82.1    1s
    H   60    58                       2.4100427    0.00000   100%  73.8    1s
    H   60    58                       2.4100424    0.00000   100%  73.8    1s
    H   77    63                       2.4100417    0.00000   100%  66.0    1s
    H   99    85                       2.3786396    0.00000   100%  63.7    1s
    H  141   119                       2.3786396    0.00000   100%  58.0    1s
    H  183   146                       2.3786395    0.00000   100%  51.2    1s
    H  183   143                       2.3091087    0.00000   100%  51.2    1s
    H  227   161                       1.7751493    0.00000   100%  49.1    1s
    H  227   149                       1.6914778    0.00000   100%  49.1    1s
    H  232   146                       1.6914772    0.00000   100%  49.0    1s
    H  259   173                       1.6914772    0.00000   100%  49.9    1s
    H  259   173                       1.6914764    0.00000   100%  49.9    1s
    H  300   196                       1.6914763    0.00000   100%  44.9    2s
    H  300   186                       1.6914762    0.00000   100%  44.9    2s
    H  329   194                       1.6914758    0.00000   100%  94.2    3s
    H  334   188                       1.6767099    0.00000   100%  94.7    3s
    H  335   178                       1.6767099    0.00000   100%  94.9    3s
    H  336   170                       1.6698867    0.00000   100%  94.8    3s
    H  337   162                       1.6698862    0.00000   100%  94.6    3s
    H  338   153                       1.2640737    0.00000   100%  94.8    3s
    H  339   146                       1.2534442    0.00000   100%  94.6    3s
    H  340   140                       1.0792925    0.00000   100%  95.6    3s
    H  340   133                       1.0407555    0.00000   100%  95.6    3s
    H  342   125                       1.0358849    0.00000   100%  95.4    3s
    H  343   118                       0.9369185    0.00000   100%  95.3    3s
    H  344   111                       0.7510085    0.00000   100%  95.0    3s
    H  349   106                       0.7510081    0.00000   100%  94.4    3s
    H  355   101                       0.7510081    0.00000   100%  93.7    3s
    H  361    96                       0.7510081    0.00000   100%  94.5    3s
    H  380    93                       0.7405812    0.00000   100%  92.5    4s
    H  396    88                       0.7405808    0.00000   100%  93.3    4s
    H  447    93                       0.7405554    0.00000   100%  95.1    4s
    H  622   124                       0.7405097    0.00000   100%  91.1    4s
       642   142    0.23120   35   29    0.74051    0.00000   100%  93.3    5s
    H  790   227                       0.7405094    0.00000   100%  93.7    5s
    H 1083   372                       0.7405093    0.00000   100%   102    6s
    H 1266   440                       0.7405093    0.00000   100%   103    7s
    H 1363   454                       0.7405093    0.00000   100%   105    7s
      2110   723    0.39277   31   23    0.74051    0.00162   100%   100   10s
      4501  1158    0.59957   41   12    0.74051    0.12894  82.6%  88.1   15s
      7402  1506    0.51733   27   22    0.74051    0.24431  67.0%  79.3   20s
    H 9878  1477                       0.7391886    0.35482  52.0%  74.3   24s
     10438  1495    0.55821   39   15    0.73919    0.37314  49.5%  73.5   25s
     13767  1097    0.65633   32   18    0.73919    0.50126  32.2%  67.3   30s
    *16174     0              47       0.7391883    0.73919  0.00%  62.3   32s
    
    Cutting planes:
      Gomory: 1
      Implied bound: 5
      Projected implied bound: 1
      Flow cover: 4
    
    Explored 16175 nodes (1043411 simplex iterations) in 32.89 seconds (29.93 work units)
    Thread count was 1 (of 96 available processors)
    
    Solution count 10: 0.739188 0.740509 0.936918 ... 2.89042
    
    Optimal solution found (tolerance 1.00e-06)
    Best objective 7.391883055535e-01, best bound 7.391883055535e-01, gap 0.0000%
    
    User-callback calls 16322, time in user-callback 0.00 sec

... Solving fixed model...

    Gurobi Optimizer version 13.0.0 build v13.0.0rc1 (linux64 - "Oracle Linux Server 9.7")
    
    CPU model: AMD EPYC 7643 48-Core Processor, instruction set [SSE2|AVX|AVX2]
    Thread count: 48 physical cores, 96 logical processors, using up to 1 threads
    
    Non-default parameters:
    TimeLimit  300
    MIPGap  1e-06
    LogToConsole  0
    NonConvex  2
    Threads  1
    
    Optimize a model with 859 rows, 475 columns and 1973 nonzeros (Min)
    Model fingerprint: 0xab1ddf0b
    Model has 15 linear objective coefficients
    Model has 75 quadratic constraints
    Coefficient statistics:
      Matrix range     [1e+00, 6e+01]
      QMatrix range    [4e-02, 2e+00]
      Objective range  [1e+00, 1e+00]
      Bounds range     [1e+00, 6e+01]
      RHS range        [1e+00, 1e+00]
    Presolve removed 855 rows and 450 columns
    Presolve time: 0.00s
    Presolved: 61 rows, 75 columns, 145 nonzeros
    Presolved model has 15 second-order cone constraints
    Ordering time: 0.00s
    
    Barrier statistics:
     AA' NZ     : 3.410e+02
     Factor NZ  : 5.150e+02
     Factor Ops : 5.947e+03 (less than 1 second per iteration)
     Threads    : 1
    
                      Objective                Residual
    Iter       Primal          Dual         Primal    Dual     Compl     Time
       0   5.25439349e+02 -2.72960219e+02  1.32e+01 2.32e+00  1.05e+01     0s
       1   5.08484031e+01 -3.92787091e+01  1.45e-05 2.55e-06  8.27e-01     0s
       2   1.36832606e+00 -5.53229585e+00  1.86e-07 2.98e-07  6.33e-02     0s
       3   9.72720056e-01 -7.88611707e-01  2.06e-13 7.07e-08  1.62e-02     0s
       4   7.85967452e-01  6.70798373e-01  1.60e-14 2.36e-09  1.06e-03     0s
       5   7.41628928e-01  7.35061622e-01  3.83e-13 7.49e-11  6.03e-05     0s
       6   7.39665217e-01  7.38681249e-01  5.30e-12 8.28e-12  9.03e-06     0s
       7   7.39261815e-01  7.39160579e-01  3.43e-11 2.66e-13  9.29e-07     0s
       8   7.39212040e-01  7.39181354e-01  2.14e-10 2.57e-13  2.82e-07     0s
       9   7.39196917e-01  7.39185924e-01  4.39e-09 1.56e-12  1.01e-07     0s
      10   7.39188591e-01  7.39186992e-01  1.18e-08 1.83e-12  1.47e-08     0s
    
    Barrier solved model in 10 iterations and 0.00 seconds (0.00 work units)
    Optimal objective 7.39188591e-01
    
    
    User-callback calls 0, time in user-callback 0.00 sec
    Warning: to get QCP duals, please set parameter QCPDual to 1

--- Reading solution for model GAMS_MODEL
***
*** Solver did not provide marginals for model GAMS_MODEL
***
--- Executing after solve: elapsed 0:00:32.947
--- model.gms(3100) 4 Mb
--- model.gms(4561) 6 Mb
--- Putfile results /local/scratch/a/sgusev/repos/k_means/data/gams_gurobi_gdp.hull_exact/no_mode/2026-02-14_22-16-28/original/results.dat
--- Putfile statresults /local/scratch/a/sgusev/repos/k_means/data/gams_gurobi_gdp.hull_exact/no_mode/2026-02-14_22-16-28/original/resultsstat.dat
*** Status: Normal completion
--- Job model.gms Stop 02/14/26 22:17:01 elapsed 0:00:32.949
Original problem solved. Time taken: 33.55634903907776 seconds
Original objective value: 0.739188591446323
